
Gurobi 10.0.1 (mac64[arm]) logging started Mon Sep 18 22:43:26 2023

Set parameter LogFile to value "scenario_capacity/CAP_g/results/CAP_g_0/mip_log.txt"
Gurobi Optimizer version 10.0.1 build v10.0.1rc0 (mac64[arm])

CPU model: Apple M1
Thread count: 8 physical cores, 8 logical processors, using up to 8 threads

Optimize a model with 5082 rows, 18879 columns and 74316 nonzeros
Model fingerprint: 0x63e77017
Model has 26934 general constraints
Variable types: 3 continuous, 18876 integer (1224 binary)
Coefficient statistics:
  Matrix range     [6e-02, 3e+05]
  Objective range  [9e-02, 2e+05]
  Bounds range     [1e+00, 2e+07]
  RHS range        [4e+03, 2e+04]
  GenCon rhs range [1e+00, 1e+00]
  GenCon coe range [1e+00, 1e+00]

MIP start from previous solve produced solution with objective 5.72783e+07 (1.17s)
MIP start from previous solve produced solution with objective 5.72338e+07 (1.18s)
MIP start from previous solve produced solution with objective 5.72185e+07 (1.26s)
MIP start from previous solve produced solution with objective 5.71804e+07 (1.81s)
MIP start from previous solve produced solution with objective 5.71331e+07 (1.85s)
MIP start from previous solve produced solution with objective 5.71246e+07 (2.06s)
MIP start from previous solve produced solution with objective 5.67911e+07 (2.16s)
Loaded MIP start from previous solve with objective 5.67911e+07
Processed MIP start in 2.52 seconds (3.19 work units)

Presolve removed 3432 rows and 12959 columns
Presolve time: 0.46s
Presolved: 1650 rows, 5920 columns, 23713 nonzeros
Presolved model has 4 SOS constraint(s)
Variable types: 0 continuous, 5920 integer (34 binary)

Root relaxation: objective 5.259885e+07, 7195 iterations, 0.08 seconds (0.11 work units)

    Nodes    |    Current Node    |     Objective Bounds      |     Work
 Expl Unexpl |  Obj  Depth IntInf | Incumbent    BestBd   Gap | It/Node Time

     0     0 5.2599e+07    0  336 5.6791e+07 5.2599e+07  7.38%     -    3s
     0     0 5.2734e+07    0  777 5.6791e+07 5.2734e+07  7.14%     -    3s
     0     0 5.2735e+07    0  741 5.6791e+07 5.2735e+07  7.14%     -    3s
     0     0 5.2735e+07    0  750 5.6791e+07 5.2735e+07  7.14%     -    3s
     0     0 5.2735e+07    0  749 5.6791e+07 5.2735e+07  7.14%     -    3s
     0     0 5.2802e+07    0  787 5.6791e+07 5.2802e+07  7.02%     -    3s
     0     0 5.2820e+07    0  900 5.6791e+07 5.2820e+07  6.99%     -    3s
     0     0 5.2836e+07    0  902 5.6791e+07 5.2836e+07  6.96%     -    3s
     0     0 5.2848e+07    0  905 5.6791e+07 5.2848e+07  6.94%     -    3s
     0     0 5.2848e+07    0  911 5.6791e+07 5.2848e+07  6.94%     -    3s
     0     0 5.2894e+07    0  940 5.6791e+07 5.2894e+07  6.86%     -    3s
     0     0 5.2980e+07    0  958 5.6791e+07 5.2980e+07  6.71%     -    3s
     0     0 5.2999e+07    0  961 5.6791e+07 5.2999e+07  6.68%     -    3s
     0     0 5.2999e+07    0  962 5.6791e+07 5.2999e+07  6.68%     -    3s
     0     0 5.3055e+07    0  814 5.6791e+07 5.3055e+07  6.58%     -    3s
     0     0 5.3075e+07    0  767 5.6791e+07 5.3075e+07  6.54%     -    3s
H    0     0                    5.679093e+07 5.3075e+07  6.54%     -    3s
     0     2 5.3075e+07    0  744 5.6791e+07 5.3075e+07  6.54%     -    3s
H   58    60                    5.679093e+07 5.4232e+07  4.51%   375    4s
H  151   131                    5.671557e+07 5.4232e+07  4.38%   309    4s
   256   197 5.6433e+07   21  410 5.6716e+07 5.4278e+07  4.30%   260    5s
H 1544   962                    5.671554e+07 5.4821e+07  3.34%   125    6s
H 1625   969                    5.671554e+07 5.4821e+07  3.34%   133    7s
H 2649   979                    5.667888e+07 5.4821e+07  3.28%   106    8s
H 2740   928                    5.667887e+07 5.4821e+07  3.28%   104    8s
H 3079   810                    5.654807e+07 5.4821e+07  3.05%  98.8    8s
H 4940  1051                    5.652320e+07 5.4821e+07  3.01%  92.8    9s
  4941  1108 5.5710e+07   25  185 5.6523e+07 5.4821e+07  3.01%  92.8   10s
H 7145  1403                    5.652301e+07 5.5103e+07  2.51%  89.1   11s
H 8671  1662                    5.647582e+07 5.5308e+07  2.07%  86.0   12s
* 9026  1803             218    5.647580e+07 5.5326e+07  2.04%  85.8   12s
H 9513  1735                    5.646877e+07 5.5365e+07  1.96%  84.1   12s
H13631  1593                    5.638491e+07 5.5637e+07  1.33%  81.3   14s
H14200  1473                    5.638491e+07 5.5672e+07  1.26%  81.4   14s
 14359  1433     cutoff   31      5.6385e+07 5.5694e+07  1.22%  81.5   15s
H18630   709                    5.634600e+07 5.6037e+07  0.55%  82.8   17s
H19271   784                    5.634599e+07 5.6103e+07  0.43%  81.5   17s
H19453   646                    5.634599e+07 5.6103e+07  0.43%  81.0   17s
H20655   224                    5.632101e+07 5.6165e+07  0.28%  81.0   18s
H21095   669                    5.632100e+07 5.6233e+07  0.16%  81.1   19s
H22538   988                    5.632100e+07 5.6265e+07  0.10%  76.8   19s
 23069   881 5.6321e+07   49   10 5.6321e+07 5.6265e+07  0.10%  75.2   20s

Explored 25436 nodes (1763541 simplex iterations) in 21.09 seconds (24.67 work units)
Thread count was 8 (of 8 available processors)

Solution count 10: 5.6321e+07 5.6321e+07 5.6321e+07 ... 5.64758e+07

Optimal solution found (tolerance 1.00e-04)
Best objective 5.632099668200e+07, best bound 5.631927727648e+07, gap 0.0031%
